db/data/24115811520546208911441617135448721029.z3.out
-------------------
2500.113703506
